MST06
Position Depot: Center
Horizon for Depot: Small
Position of customers: Mixt
Distribution of the demand: Large
Width of time windows: Tight
Distribution of the service: Large

VEHICLE 
NUMBER 	 CAPACITY 
 12 	 	 187 
 
CUSTOMER
CUST NO. 	 XCOORD.  	 YCOORD. 	 DEMAND 	 READY TIME 	 DUE DATE 	 SERVICE TIME 
 0 	 	 500 	 	 500 	 	 0 	 	 0 	 	 2412 	 	 0 
  1 	 	 82 	 	 243 	 	 19 	 	 1571 	 	 1747 	 	 150 
  2 	 	 52 	 	 772 	 	 33 	 	 1982 	 	 2122 	 	 145 
  3 	 	 122 	 	 293 	 	 99 	 	 2081 	 	 2212 	 	 141 
  4 	 	 118 	 	 369 	 	 52 	 	 1384 	 	 1583 	 	 132 
  5 	 	 388 	 	 266 	 	 61 	 	 259 	 	 328 	 	 127 
  6 	 	 412 	 	 47 	 	 17 	 	 809 	 	 884 	 	 143 
  7 	 	 982 	 	 993 	 	 70 	 	 1505 	 	 1561 	 	 124 
  8 	 	 684 	 	 61 	 	 44 	 	 353 	 	 523 	 	 101 
  9 	 	 715 	 	 42 	 	 98 	 	 814 	 	 867 	 	 159 
  10 	 	 109 	 	 276 	 	 45 	 	 1844 	 	 1902 	 	 199 
  11 	 	 65 	 	 422 	 	 26 	 	 1506 	 	 1703 	 	 116 
  12 	 	 992 	 	 905 	 	 25 	 	 1105 	 	 1277 	 	 116 
  13 	 	 981 	 	 985 	 	 78 	 	 1667 	 	 1809 	 	 195 
  14 	 	 323 	 	 272 	 	 71 	 	 644 	 	 772 	 	 127 
  15 	 	 338 	 	 111 	 	 1 	 	 942 	 	 1027 	 	 146 
  16 	 	 224 	 	 270 	 	 71 	 	 1767 	 	 1890 	 	 172 
  17 	 	 50 	 	 403 	 	 56 	 	 1029 	 	 1110 	 	 146 
  18 	 	 167 	 	 819 	 	 43 	 	 765 	 	 914 	 	 124 
  19 	 	 0 	 	 772 	 	 9 	 	 1076 	 	 1175 	 	 144 
  20 	 	 151 	 	 319 	 	 18 	 	 1307 	 	 1464 	 	 101 
  21 	 	 19 	 	 437 	 	 89 	 	 2154 	 	 2353 	 	 196 
  22 	 	 174 	 	 200 	 	 25 	 	 837 	 	 1031 	 	 178 
  23 	 	 180 	 	 243 	 	 26 	 	 1320 	 	 1375 	 	 178 
  24 	 	 163 	 	 292 	 	 1 	 	 1399 	 	 1497 	 	 155 
  25 	 	 221 	 	 339 	 	 17 	 	 2119 	 	 2275 	 	 122 
  26 	 	 861 	 	 250 	 	 45 	 	 350 	 	 483 	 	 158 
  27 	 	 338 	 	 658 	 	 55 	 	 1560 	 	 1685 	 	 112 
  28 	 	 772 	 	 226 	 	 33 	 	 2189 	 	 2370 	 	 167 
  29 	 	 249 	 	 842 	 	 58 	 	 1464 	 	 1608 	 	 190 
  30 	 	 149 	 	 791 	 	 72 	 	 2085 	 	 2142 	 	 114 
  31 	 	 893 	 	 379 	 	 44 	 	 977 	 	 1139 	 	 200 
  32 	 	 705 	 	 858 	 	 21 	 	 1863 	 	 1996 	 	 136 
  33 	 	 640 	 	 351 	 	 75 	 	 1000 	 	 1097 	 	 198 
  34 	 	 72 	 	 430 	 	 56 	 	 417 	 	 477 	 	 100 
  35 	 	 601 	 	 614 	 	 55 	 	 1893 	 	 1956 	 	 156 
  36 	 	 451 	 	 890 	 	 40 	 	 335 	 	 432 	 	 189 
  37 	 	 176 	 	 694 	 	 100 	 	 796 	 	 918 	 	 174 
  38 	 	 178 	 	 754 	 	 83 	 	 1009 	 	 1120 	 	 171 
  39 	 	 324 	 	 814 	 	 24 	 	 1231 	 	 1368 	 	 143 
  40 	 	 223 	 	 909 	 	 72 	 	 473 	 	 543 	 	 177 
  41 	 	 394 	 	 880 	 	 76 	 	 1714 	 	 1779 	 	 118 
  42 	 	 265 	 	 386 	 	 56 	 	 277 	 	 415 	 	 150 
  43 	 	 565 	 	 508 	 	 52 	 	 1264 	 	 1317 	 	 123 
  44 	 	 628 	 	 789 	 	 11 	 	 1490 	 	 1668 	 	 111 
  45 	 	 593 	 	 128 	 	 12 	 	 548 	 	 693 	 	 165 
  46 	 	 0 	 	 621 	 	 17 	 	 1751 	 	 1933 	 	 181 
  47 	 	 697 	 	 261 	 	 15 	 	 1314 	 	 1391 	 	 133 
  48 	 	 783 	 	 494 	 	 29 	 	 1103 	 	 1270 	 	 127 
  49 	 	 678 	 	 305 	 	 68 	 	 363 	 	 507 	 	 162 
  50 	 	 328 	 	 447 	 	 74 	 	 2060 	 	 2212 	 	 103 
 